1 10.00 41.00 
1 8.00 46.00 
1 7.00 49.00 
1 5.00 30.00 
1 0.00 55.00 
1 5.00 40.00 
1 18.00 47.00 
2 20.00 62.00 
2 22.00 49.00 
2 22.00 53.00 
2 26.00 52.00 
2 27.00 56.00 
3 37.00 60.00
3 39.00 63.00
3 47.00 66.00
3 37.00 72.00
3 53.00 66.00
3 36.00 66.00
4 10.00 80.00
4 12.00 83.00
4 12.00 86.00
4 15.00 82.00
4 23.00 76.00
4 26.00 86.00


